282171.45,16.44,18.0
268722.49,17.26,18.9
267946.59,17.31,18.96
274636.57,16.89,18.5
266488.14,17.4,19.06
264056.61,17.56,19.24
271069.02,17.11,18.74
266744.48,17.39,19.04
275505.02,16.83,18.44
255303.76,18.16,19.9
266921.1,17.37,19.03
253459.36,18.3,20.04
268100.9,17.3,18.95
266257.01,17.42,19.08
259813.61,17.85,19.55
269106.52,17.23,18.88
284890.52,16.28,17.83
260179.47,17.82,19.52
256610.65,18.07,19.8
249126.28,18.61,20.39
